50
    80    68    60     8    43    53    23    10     1    13    88    49    55    36    38    56    94    27    98    33   100     4    30    43    46     3    40    17    93    75    74    52    96    87    17     9    97    20    96    16    31    73    78    66    23    58    71    18    90     5
     2     2     5     4     5     4     2     9     8     5     2     5     9     4     8     5     3     5     5     2     2     9     2     9     6     7     7     8     3     9     2     1     5     7    10     9     5     1    10     5     1     1     7     8     9     5     4    10     1     5
  1572  1454  2621  1429  1775  2247  2078  2175  1597  2164  2516  1523  2137  1978  2371  1575  1306  1932  1987  1481  1983  2607  1816  2372  1739  2120  1350  2701  2468  1418  1761  1702  1583  1467  1882  2110  1655  2656  2312  1817  1600  1981  1408  2491  1898  1301  2331  1234  1677  1570
